Version identifier: 22.1.0.0 | 2022-03-09 | 1a383f8ce
CPXPARAM_Threads                                 1
CPXPARAM_MIP_Strategy_VariableSelect             3
CPXPARAM_TimeLimit                               599.99593349300005
Found incumbent of value 0.000000 after 0.00 sec. (0.52 ticks)

Root node processing (before b&c):
  Real time             =    0.00 sec. (0.58 ticks)
Sequential b&c:
  Real time             =    0.00 sec. (0.00 ticks)
                          ------------
Total (root+branch&cut) =    0.00 sec. (0.58 ticks)
Version identifier: 22.1.0.0 | 2022-03-09 | 1a383f8ce
CPXPARAM_Threads                                 1
CPXPARAM_MIP_Strategy_VariableSelect             3
CPXPARAM_TimeLimit                               599.97059174000003
Found incumbent of value 0.000000 after 0.00 sec. (0.56 ticks)

Root node processing (before b&c):
  Real time             =    0.00 sec. (0.63 ticks)
Sequential b&c:
  Real time             =    0.00 sec. (0.00 ticks)
                          ------------
Total (root+branch&cut) =    0.00 sec. (0.63 ticks)
Version identifier: 22.1.0.0 | 2022-03-09 | 1a383f8ce
CPXPARAM_Threads                                 1
CPXPARAM_MIP_Strategy_VariableSelect             3
CPXPARAM_TimeLimit                               599.945102099
Found incumbent of value 0.000000 after 0.00 sec. (0.58 ticks)

Root node processing (before b&c):
  Real time             =    0.00 sec. (0.66 ticks)
Sequential b&c:
  Real time             =    0.00 sec. (0.00 ticks)
                          ------------
Total (root+branch&cut) =    0.00 sec. (0.66 ticks)
Version identifier: 22.1.0.0 | 2022-03-09 | 1a383f8ce
CPXPARAM_Threads                                 1
CPXPARAM_MIP_Strategy_VariableSelect             3
CPXPARAM_TimeLimit                               599.91856271100005
Found incumbent of value 0.000000 after 0.00 sec. (0.60 ticks)

Root node processing (before b&c):
  Real time             =    0.00 sec. (0.67 ticks)
Sequential b&c:
  Real time             =    0.00 sec. (0.00 ticks)
                          ------------
Total (root+branch&cut) =    0.00 sec. (0.67 ticks)
Version identifier: 22.1.0.0 | 2022-03-09 | 1a383f8ce
CPXPARAM_Threads                                 1
CPXPARAM_MIP_Strategy_VariableSelect             3
CPXPARAM_TimeLimit                               599.89133263600002
Tried aggregator 1 time.
MIP Presolve eliminated 373 rows and 1071 columns.
Reduced MIP has 2138 rows, 3213 columns, and 26966 nonzeros.
Reduced MIP has 3213 binaries, 0 generals, 0 SOSs, and 0 indicators.
Presolve time = 0.02 sec. (15.15 ticks)
Probing time = 0.00 sec. (2.84 ticks)
Tried aggregator 1 time.
Detecting symmetries...
Reduced MIP has 2138 rows, 3213 columns, and 26966 nonzeros.
Reduced MIP has 3213 binaries, 0 generals, 0 SOSs, and 0 indicators.
Presolve time = 0.02 sec. (16.71 ticks)
Probing time = 0.00 sec. (2.84 ticks)
Clique table members: 1422.
MIP emphasis: balance optimality and feasibility.
MIP search method: dynamic search.
Parallel mode: none, using 1 thread.
Root relaxation solution time = 0.03 sec. (23.50 ticks)

        Nodes                                         Cuts/
   Node  Left     Objective  IInf  Best Integer    Best Bound    ItCnt     Gap

      0     0        0.0000    52                      0.0000      535         
*     0+    0                            0.0000        0.0000             0.00%
      0     0        cutoff              0.0000        0.0000      535    0.00%
Elapsed time = 0.22 sec. (158.38 ticks, tree = 0.01 MB, solutions = 1)

Root node processing (before b&c):
  Real time             =    0.22 sec. (158.51 ticks)
Sequential b&c:
  Real time             =    0.00 sec. (0.00 ticks)
                          ------------
Total (root+branch&cut) =    0.22 sec. (158.51 ticks)
Version identifier: 22.1.0.0 | 2022-03-09 | 1a383f8ce
CPXPARAM_Threads                                 1
CPXPARAM_MIP_Strategy_VariableSelect             3
CPXPARAM_TimeLimit                               599.64565544799996
Tried aggregator 1 time.
MIP Presolve eliminated 375 rows and 1077 columns.
Reduced MIP has 2150 rows, 3231 columns, and 27118 nonzeros.
Reduced MIP has 3231 binaries, 0 generals, 0 SOSs, and 0 indicators.
Presolve time = 0.02 sec. (15.23 ticks)
Probing time = 0.00 sec. (2.84 ticks)
Tried aggregator 1 time.
Detecting symmetries...
Reduced MIP has 2150 rows, 3231 columns, and 27118 nonzeros.
Reduced MIP has 3231 binaries, 0 generals, 0 SOSs, and 0 indicators.
Presolve time = 0.02 sec. (16.80 ticks)
Probing time = 0.00 sec. (2.84 ticks)
Clique table members: 1430.
MIP emphasis: balance optimality and feasibility.
MIP search method: dynamic search.
Parallel mode: none, using 1 thread.
Root relaxation solution time = 0.02 sec. (21.76 ticks)

        Nodes                                         Cuts/
   Node  Left     Objective  IInf  Best Integer    Best Bound    ItCnt     Gap

      0     0        0.0000   158                      0.0000      501         
*     0+    0                            0.0000        0.0000             0.00%
      0     0        cutoff              0.0000        0.0000      501    0.00%
Elapsed time = 0.17 sec. (131.23 ticks, tree = 0.01 MB, solutions = 1)

Root node processing (before b&c):
  Real time             =    0.17 sec. (131.36 ticks)
Sequential b&c:
  Real time             =    0.00 sec. (0.00 ticks)
                          ------------
Total (root+branch&cut) =    0.17 sec. (131.36 ticks)
Version identifier: 22.1.0.0 | 2022-03-09 | 1a383f8ce
CPXPARAM_Threads                                 1
CPXPARAM_MIP_Strategy_VariableSelect             3
CPXPARAM_TimeLimit                               599.44677230699995
Tried aggregator 1 time.
MIP Presolve eliminated 376 rows and 1080 columns.
Reduced MIP has 2156 rows, 3240 columns, and 27194 nonzeros.
Reduced MIP has 3240 binaries, 0 generals, 0 SOSs, and 0 indicators.
Presolve time = 0.02 sec. (15.28 ticks)
Probing time = 0.00 sec. (2.84 ticks)
Tried aggregator 1 time.
Detecting symmetries...
Reduced MIP has 2156 rows, 3240 columns, and 27194 nonzeros.
Reduced MIP has 3240 binaries, 0 generals, 0 SOSs, and 0 indicators.
Presolve time = 0.02 sec. (16.85 ticks)
Probing time = 0.00 sec. (2.84 ticks)
Clique table members: 1434.
MIP emphasis: balance optimality and feasibility.
MIP search method: dynamic search.
Parallel mode: none, using 1 thread.
Root relaxation solution time = 0.02 sec. (21.71 ticks)

        Nodes                                         Cuts/
   Node  Left     Objective  IInf  Best Integer    Best Bound    ItCnt     Gap

      0     0        0.0000    78                      0.0000      495         
*     0+    0                            0.0000        0.0000             0.00%
      0     0        cutoff              0.0000        0.0000      495    0.00%
Elapsed time = 0.15 sec. (123.17 ticks, tree = 0.01 MB, solutions = 1)

Root node processing (before b&c):
  Real time             =    0.15 sec. (123.31 ticks)
Sequential b&c:
  Real time             =    0.00 sec. (0.00 ticks)
                          ------------
Total (root+branch&cut) =    0.15 sec. (123.31 ticks)
Primal:	360
Dual:	360
Status:	Optimal
Time:	0.725933
Sequence:
	9
	5
	9
	9
	5
	9
	9
	9
	9
	5
	9
	9
	4
	9
	5
	9
	5
	9
	9
	5
	9
	5
	9
	5
	9
	5
	9
	9
	5
	9
	9
	5
	9
	9
	9
	5
	9
	4
	9
	9
	9
	9
	5
	9
	9
	9
	9
	9
	9
	0
	5
	9
	4
	9
	9
	9
	9
	9
	9
	9
	9
	1
	9
	9
	9
	9
	9
	9
	9
	9
	9
	4
	5
	9
	9
	9
	5
	9
	9
	9
	9
	9
	9
	9
	9
	4
	5
	9
	9
	9
	5
	9
	9
	9
	9
	9
	9
	9
	9
	5
	9
	5
	0
	5
	4
	0
	4
	1
	4
	4
	3
	4
	4
	0
	9
	4
	5
	0
	4
	9
	0
	5
	4
	0
	5
	4
	0
	1
	4
	5
	9
	5
	0
	1
	4
	11
	2
	5
	4
	9
	5
	9
	5
	4
	1
	4
	1
	9
	5
	0
	4
	5
	0
	9
	5
	0
	3
	9
	4
	1
	9
	0
	5
	9
	4
	0
	9
	5
	0
	5
	9
	0
	4
	1
	0
	5
	4
	1
	4
	0
	4
	11
	9
	5
	0
	9
	1
	0
	5
	9
	5
	4
	0
	5
	9
	5
	4
	9
	5
	0
	4
	5
	0
	1
	9
	0
	4
	3
	4
	0
	4
	5
	0
	4
	5
	0
	9
	1
	0
	4
	4
	9
	5
	9
	5
	0
	5
	9
	4
	0
	5
	9
	9
	5
	9
	4
	4
	0
	4
	9
	4
	0
	1
	4
	0
	5
	4
	1
	4
	0
	5
	4
	0
	5
	9
	5
	4
	9
	0
	5
	9
	4
	9
	5
	9
	4
	9
	5
	9
	0
	4
	9
	0
	4
	5
	0
	5
	9
	5
	0
	11
	4
	9
	5
	0
	9
	1
	9
	4
	5
	0
	5
	9
	5
	0
	1
	9
	4
	5
	0
	1
	9
	5
	4
	9
	0
	5
	9
	9
	5
	0
	5
	4
	0
	10
	4
	5
	9
	4
	0
	9
	5
	4
	1
	0
	5
	9
	5
	4
	0
	5
	4
	0
	11
	4
	9
	0
	5
	4
	1
	0
	4
	5
	0
	5
	4
	0
	5
	9
	0
	5
	9
	1
	0
	5
	4
	0
	5
	9
	0
